# Objective value = 3.0348278273189862e+02
x[0] 4.9796995864366372e-08
x[1] 1.0000002973789746e+00
x[2] 8.4785232545419691e-08
x[3] 0
x[4] 1
x[5] 1
x[6] 1
x[7] 0
x[8] 0
x[9] 1
x[10] 0.999999984898539
x[11] 0
x[12] 1
x[13] 0
x[14] 0
x[15] 0
x[16] 9.9999991843475522e-01
x[17] 1
x[18] 0
x[19] 0
x[20] 0
x[21] 1
x[22] 1
x[23] 9.9999997362049464e-01
x[24] 0
x[25] 0
x[26] 0
x[27] 1
x[28] 0
x[29] 1
x[30] 8.4652260881325181e-08
x[31] 1
x[32] 1
x[33] 0
x[34] -1.1006768144453947e-07
x[35] 1
x[36] 1
x[37] 0
x[38] -1.1006768144453947e-07
x[39] 0
x[40] -2.9748320984346321e-07
x[41] 3.0492237650894138e-07
x[42] 0
x[43] 1
x[44] 0
x[45] 0
x[46] 0
x[47] 1
x[48] 1.0000003999566862e+00
x[49] 0
x[50] 1
x[51] 0
x[52] 1
x[53] 1
x[54] 1
x[55] -1.0673434808030587e-07
x[56] 9.4771386709843738e-08
x[57] 0
x[58] -3.0598563889766652e-07
x[59] 1
x[60] 1.0000000100260427e+00
x[61] 0
x[62] 0
x[63] 1.0000000949057672e+00
x[64] 0
x[65] 0
x[66] 0
x[67] 0
x[68] 1
x[69] 0
x[70] 0
x[71] 0
x[72] 1
x[73] 0
x[74] 1.0000001099983769e+00
x[75] 0
x[76] 9.9999991843475522e-01
x[77] 0
x[78] 0
x[79] 0
x[80] 1
x[81] 0
x[82] 1.0000000510255516e+00
x[83] 1
x[84] 0
x[85] 0
x[86] 1
x[87] 1
x[88] 1
x[89] 0
x[90] 3.0498928557875568e-07
x[91] 1
x[92] -4.1176828858658485e-07
x[93] 1.0000002972288515e+00
x[94] 0
x[95] 9.9999969829939284e-01
x[96] 0
x[97] 1
x[98] 0
x[99] 1
x[100] 0
x[101] 1
x[102] -1.0067641196349633e-08
x[103] 0
x[104] 0
x[105] 1.0000000949245260e+00
x[106] 0
x[107] 0
x[108] 0
x[109] 1.0999315753724654e-07
x[110] 1
x[111] 0
x[112] 1
x[113] 1
x[114] 0
x[115] 0
x[116] -1.0673434801772628e-07
x[117] 0
x[118] -9.0067239847237441e-08
x[119] 0
x[120] 1
x[121] 1
x[122] 0
x[123] -5.7807088700948680e-08
x[124] 1
x[125] 1
x[126] 1
x[127] 1.1001621898173425e-07
x[128] 1
x[129] 1
x[130] -5.1072780960968685e-08
x[131] 1
x[132] 0
x[133] 1
x[134] 0
x[135] 3.9941160160751181e-07
x[136] 1
x[137] 0
x[138] 0
x[139] 1
x[140] 1.0000002675391950e+00
x[141] 1
x[142] 0
x[143] 0
x[144] 1
x[145] 0
x[146] 0
x[147] 1
x[148] 1
x[149] -2.7675696206810281e-07
x[150] 1
x[151] 1
x[152] 1
x[153] 1
x[154] 0
x[155] 1
x[156] 1.0000000949234085e+00
x[157] 1
x[158] 1
x[159] 0
x[160] 1.1002311234862825e-07
x[161] 1
x[162] 0
x[163] 1
x[164] 1
x[165] -9.49662193210213e-08
x[166] 1
x[167] 0
x[168] -2.1418191934065587e-08
x[169] 0
x[170] 0
x[171] 1
x[172] 1
x[173] 0
x[174] 1
x[175] 1
x[176] 1
x[177] 1
x[178] 0
x[179] 0
x[180] 9.9999993707761259e-01
x[181] 1
x[182] 0
x[183] 1
x[184] 1
x[185] 1
x[186] 0
x[187] 1
x[188] 0
x[189] -2.5170058738835293e-07
x[190] 0
x[191] 1
x[192] 1
x[193] -9.1632885999470466e-08
x[194] 1
x[195] 0
x[196] 1.0000000949079748e+00
x[197] 1
x[198] 0
x[199] 9.4870795877568935e-08
x[200] 1
x[201] 1.0000001099963169e+00
x[202] 8.4780927059008944e-08
x[203] 1.0000002973885942e+00
x[204] 0
x[205] 1
x[206] 1
x[207] 0
x[208] -9.49662193328038e-08
x[209] 0
x[210] 1
x[211] -9.4966219340432076e-08
x[212] 0
x[213] 0
x[214] 1
x[215] 1
x[216] 1
x[217] 1
x[218] 0
x[219] 1
x[220] 9.4184391488676025e-08
x[221] 1
x[222] 1
x[223] 0
x[224] 0
x[225] 1
x[226] 0
x[227] 0
x[228] 1
x[229] 1
x[230] 1
x[231] 1
x[232] 0
x[233] 1.0996719086264316e-07
x[234] 0
x[235] 0
x[236] 0
x[237] 0
x[238] 1
x[239] 1
x[240] 0
x[241] 0
x[242] 0
x[243] 1
x[244] 1
x[245] 1
x[246] 1
x[247] 3.9995681155258006e-07
x[248] 1
x[249] 0
x[250] 1
x[251] 9.9999991843475522e-01
x[252] 1
x[253] 1.0000000948489278e+00
x[254] 0
x[255] 1
x[256] 1
x[257] 1
x[258] 0
x[259] 0
x[260] 0
x[261] 9.9999969829939284e-01
x[262] 0
x[263] 1
x[264] 1
x[265] 0
x[266] 0
x[267] 1
x[268] 1
x[269] 3.04914228055438e-07
x[270] 0
x[271] 0
x[272] 0
x[273] 1
x[274] 1
x[275] 0
x[276] 9.9999991843475544e-01
x[277] 0
x[278] 0
x[279] -1.1006768135105962e-07
x[280] 0
x[281] 0
x[282] 3.9989886109833780e-07
x[283] 1
x[284] 0
x[285] 1
x[286] 0
x[287] 0
x[288] 1
x[289] 1
x[290] 1
x[291] 1
x[292] 1
x[293] 0
x[294] 0
x[295] 0
x[296] 9.9999960333317350e-01
x[297] 1
x[298] 0
x[299] 1
x[300] 1
x[301] 9.9999960337652183e-01
x[302] 9.9999969829939284e-01
x[303] 0
x[304] 1
x[305] -9.49662193328038e-08
x[306] 0
x[307] 9.9999988993231859e-01
x[308] 0
x[309] 5.6516935320578437e-08
x[310] 0
x[311] 0
x[312] 1
x[313] 1
x[314] 1
x[315] 1.0000001697102689e+00
x[316] 1
x[317] 0
x[318] 0
x[319] 0
x[320] 0
x[321] -1.5101461334922322e-08
x[322] 1
x[323] 0
x[324] -9.49662193328038e-08
x[325] 0
x[326] 1
x[327] 1
x[328] 1
x[329] 0
x[330] 1
x[331] 0
x[332] 0
x[333] 1
x[334] 1
x[335] 1
x[336] 1
x[337] 1
x[338] -9.1591192687384334e-08
x[339] 0
x[340] 1.00000011001917
x[341] 0
x[342] 0
x[343] 1
x[344] 1.0000002549871811e+00
x[345] 1
x[346] 0
x[347] 7.4793191252936947e-08
x[348] 1
x[349] 1
x[350] 9.9999959999984012e-01
x[351] 1.0000000477241597e+00
x[352] 0
x[353] 0
x[354] 8.4812705399673219e-08
x[355] 0
x[356] 1
x[357] -4.1181491097384231e-07
x[358] 0
x[359] 1
x[360] 9.9999991843475522e-01
x[361] -1.1006768141363921e-07
x[362] 0
x[363] -9.4966219340432076e-08
x[364] 0
x[365] 1
x[366] 0
x[367] 1
x[368] 0
x[369] 1
x[370] 3.0495869919371288e-07
x[371] 0
x[372] 0
x[373] 1
x[374] 0
x[375] 1
x[376] 0
x[377] 1
x[378] 1
x[379] 0
x[380] 1
x[381] 1
x[382] 0
x[383] 0
x[384] 1
x[385] 0
x[386] 0
x[387] 0
x[388] 0
x[389] 1
x[390] 0
x[391] 0
x[392] 0
x[393] 0
x[394] 0
x[395] 0
x[396] 1.0998880684174219e-07
x[397] 1
x[398] 0
x[399] 1.0000001100252980e+00
x[400] 1
x[401] 0
x[402] 1
x[403] 0
x[404] 0
x[405] 1
x[406] 1
x[407] 0
x[408] 1
x[409] 1
x[410] 0
x[411] 9.4185175715760475e-08
x[412] 8.4845066031627116e-08
x[413] 0
x[414] 0
x[415] 0
x[416] 0
x[417] 9.9999992759862610e-01
x[418] 1
x[419] 1
x[420] 0
x[421] 1
x[422] 1
x[423] 0
x[424] 0
x[425] 0
x[426] 0
x[427] 1
x[428] 1
x[429] 0
x[430] 0
x[431] 0
x[432] 0
x[433] 0
x[434] 1
x[435] 1
x[436] 0
x[437] 1
x[438] 1
x[439] 1
x[440] 1
x[441] 0
x[442] 0
x[443] 1
x[444] 1
x[445] 1
x[446] 0
x[447] 0
x[448] -2.2013536288907894e-07
x[449] 1
x[450] 1
x[451] -1.7002261414834272e-07
x[452] -9.4966219340432076e-08
x[453] 2.4450630902652313e-08
x[454] 1
x[455] 0
x[456] 1
x[457] 1
x[458] 0
x[459] 0
x[460] 0
x[461] 0
x[462] 0
x[463] 0
x[464] 0
x[465] 1
x[466] 1.0000001100267060e+00
x[467] 0
x[468] 9.9999995251689044e-01
x[469] 0
x[470] 0
x[471] 1
x[472] 0
x[473] 1
x[474] 0
x[475] 0
x[476] 0
x[477] 1
x[478] 1
x[479] 1
x[480] 1.0000002250992834e+00
x[481] 0
x[482] 1
x[483] 1
x[484] 1.0000001699172256e+00
x[485] 0
x[486] 4.7391850357458674e-08
x[487] 1
x[488] 1
x[489] 1
x[490] 1
x[491] 1
x[492] 1.0000000100285980e+00
x[493] 0
x[494] 0
x[495] 1
x[496] 0
x[497] 0
x[498] 9.9999960333317350e-01
x[499] 0
x[500] 1.0000004150352912e+00
x[501] 3.9995804201610997e-07
x[502] 0
x[503] 0
x[504] 1.0000002548585702e+00
x[505] 1.0000002800454766e+00
x[506] 0
x[507] 1
x[508] 1
x[509] -1.1006768141363921e-07
x[510] 9.9999969829939261e-01
x[511] 0
x[512] 1.0000000949055972e+00
x[513] 1
x[514] 0
x[515] 1
x[516] 1
x[517] 0
x[518] 0
x[519] -2.8009029534102613e-07
x[520] 1
x[521] 1
x[522] 1
x[523] 0
x[524] 0
x[525] 0
x[526] 0
x[527] 1
x[528] 0
x[529] 1
x[530] -2.1513536288907894e-07
x[531] 1.0000001100195821e+00
x[532] 1
x[533] 0
x[534] 4.7337643329648943e-08
x[535] 1
x[536] 1
x[537] 0
x[538] 1.0000000949074079e+00
x[539] -1.1006768141363921e-07
x[540] 0
x[541] 0
x[542] 0
x[543] 0
x[544] 0
x[545] 1
x[546] 1
x[547] 1
x[548] 0.999999893310221
x[549] 1
x[550] 0
x[551] 1
x[552] 1
x[553] 0
x[554] 0
x[555] 0
x[556] 0
x[557] 1
x[558] 0
x[559] 1
x[560] 1
x[561] 1
x[562] 0
x[563] 1
x[564] 1
x[565] 1
x[566] 1
x[567] 1
x[568] 0
x[569] 0
x[570] 0
x[571] 0
x[572] 1
x[573] 0
x[574] 1
x[575] 0
x[576] 0
x[577] 1
x[578] 4.2170563810762484e-08
x[579] 1
x[580] 0
x[581] 9.9999988993231848e-01
x[582] 1
x[583] 1
x[584] 0
x[585] 1
x[586] 0
x[587] -2.7675696206810281e-07
x[588] 0
x[589] -2.9404564121306291e-07
x[590] 1.0000000947482084e+00
x[591] 1
x[592] -9.1632885999470466e-08
x[593] 1.5038593237233778e-08
x[594] 1
x[595] 1
x[596] 9.9999995251689033e-01
x[597] 0
x[598] 0
x[599] 1
x[600] 9.9999989326565208e-01
x[601] 1
x[602] 1
x[603] 0
x[604] 1
x[605] 1
x[606] 1
x[607] 0
x[608] 0
x[609] 1
x[610] 1
x[611] 0
x[612] 1
x[613] 0
x[614] 1
x[615] 0
x[616] 1.0000001699313417e+00
x[617] 1
x[618] 1
x[619] 1
x[620] 0
x[621] 0
x[622] 9.9999988993231859e-01
x[623] 0
x[624] 1
x[625] -9.4966219390862445e-08
x[626] 1
x[627] 0
x[628] 1
x[629] 1
x[630] 1
x[631] 0
x[632] 1
x[633] 1
x[634] 0
x[635] 0
x[636] 0
x[637] 0
x[638] 1
x[639] 1.0000000149385175e+00
x[640] 1
x[641] 1
x[642] 0
x[643] 1
x[644] 1
x[645] 0
x[646] 1
x[647] 1
x[648] 1
x[649] 0
x[650] 1
x[651] 1
x[652] 1
x[653] 0
x[654] 0
x[655] 0
x[656] 1
x[657] -9.49662193328038e-08
x[658] 1
x[659] 0
x[660] 1
x[661] 1
x[662] 0
x[663] 1
x[664] 0
x[665] 0
x[666] 0
x[667] 1
x[668] 0
x[669] 0
x[670] 1
x[671] 0
x[672] 9.9999988993231870e-01
x[673] 0
x[674] 1
x[675] 0
x[676] 1
x[677] 1.0983572350428614e-07
x[678] 0
x[679] 1
x[680] 1
x[681] 1.0000000949129866e+00
x[682] 0
x[683] 1
x[684] 1
x[685] 1
x[686] 1
x[687] 1.0000001100174913e+00
x[688] 0
x[689] 1
x[690] -1.1006768134725082e-07
x[691] 1
x[692] 1.00000001506084
x[693] 0
x[694] 1
x[695] 1
x[696] 0
x[697] 1.0000004146989641e+00
x[698] 0
x[699] 1
x[700] 1
x[701] 0.999999957550711
x[702] 1
x[703] 1
x[704] 1
x[705] 0
x[706] 0
x[707] 0
x[708] -1.7002261414834272e-07
x[709] 1
x[710] 0
x[711] 0
x[712] 1
x[713] -1.5101461402001336e-08
x[714] 0
x[715] 1
x[716] 0
x[717] 0
x[718] 1.0000002200979530e+00
x[719] 0
x[720] 1
x[721] 0
x[722] 9.4491190682318242e-08
x[723] 9.9999985503376054e-01
x[724] 9.9999989336614237e-01
x[725] 0
x[726] 0
x[727] 0
x[728] 0
x[729] 0
x[730] -1.1006768144453947e-07
x[731] 0
x[732] 0
x[733] 1
x[734] 9.9999995353633742e-01
x[735] 1
x[736] 0
x[737] 1
x[738] 0
x[739] 0
x[740] 1
x[741] 0
x[742] 9.9999990503378067e-01
x[743] 0
x[744] 1
x[745] 1
x[746] 0
x[747] -1.1006768144453947e-07
x[748] 1
x[749] 1
x[750] 0
x[751] 1
x[752] 0
x[753] 1
x[754] 1
x[755] 1
x[756] -9.84341450095055e-08
x[757] 8.4764519587933252e-08
x[758] 0
x[759] 0
x[760] -1.7002261414834272e-07
x[761] 1
x[762] 0
x[763] 0
x[764] 9.9999960337529126e-01
x[765] 0
x[766] 1
x[767] 1
x[768] 1
x[769] 1
x[770] 0
x[771] 1
x[772] 1
x[773] 1
x[774] 1
x[775] 0
x[776] 1
x[777] 0
x[778] 0
x[779] -1.1006768144453947e-07
x[780] 1
x[781] 1
x[782] 1
x[783] 0
x[784] 0
x[785] 0
x[786] 0
x[787] 1.5023146554990776e-08
x[788] 1
x[789] 0
x[790] 1
x[791] 0
x[792] 0
x[793] 0
x[794] 0
x[795] 1
x[796] 1.0000002974373454e+00
x[797] 1
x[798] 1
x[799] 1
x[800] 9.9999969829939284e-01
x[801] 0
x[802] 0
x[803] 0
x[804] 0
x[805] -2.9748320981177174e-07
x[806] 0
x[807] 1
x[808] 0
x[809] 1.0000001100103544e+00
x[810] 9.9999992516906278e-01
x[811] 1.0000000949017023e+00
x[812] -9.4966219340432076e-08
x[813] 1
x[814] 1
x[815] 1
x[816] 0.999999893265652
x[817] 1
x[818] 0
x[819] 1
x[820] 1
x[821] 1
x[822] 0
x[823] 1
x[824] 1
x[825] 1.1001376564085108e-07
x[826] 1
x[827] 1
x[828] 0
x[829] 0
x[830] 9.9999988993231859e-01
x[831] 1
x[832] 0
x[833] 1
x[834] 0
x[835] 1
x[836] 1.0000001100301619e+00
x[837] 1
x[838] 0
x[839] 0
x[840] 0
x[841] 0
x[842] 1
x[843] 0
x[844] 1
x[845] 0
x[846] 1
x[847] 0
x[848] 1
x[849] 1
x[850] 1
x[851] 1
x[852] 1
x[853] 1
x[854] 9.9999994340094811e-01
x[855] 0
x[856] 0
x[857] 1.0000002199809823e+00
x[858] 0
x[859] 1
x[860] 1
x[861] 1
x[862] -9.49662193328038e-08
x[863] 0
x[864] 1
x[865] 1
x[866] 0
x[867] 1
x[868] 1
x[869] 0
x[870] 8.4640435598879172e-08
x[871] 1.0000001699285095e+00
x[872] -7.1497604002179378e-08
x[873] -1.7002261414834272e-07
x[874] 0
x[875] 1
x[876] 0
x[877] 0
x[878] 0
x[879] 0
x[880] 0
x[881] 1
x[882] 0
x[883] 0
x[884] 1
x[885] 0
x[886] 0
x[887] 1
x[888] -2.2013536288907894e-07
x[889] 1
x[890] 1.0994241645184154e-07
x[891] 0
x[892] 1.0000003625365492e+00
x[893] 1
x[894] 0
x[895] 0
x[896] 1
x[897] -1.6676906390579543e-07
x[898] 0
x[899] 1
x[900] 1
x[901] 0
x[902] 1
x[903] 0
x[904] 0
x[905] 9.9999969496605945e-01
x[906] 1
x[907] 4.7313782689188655e-08
x[908] -2.2360353706955642e-07
x[909] 1
x[910] 0
x[911] 0
x[912] 0
x[913] 0
x[914] 1
x[915] 1
x[916] 1
x[917] 0
x[918] 1
x[919] 0
x[920] 0
x[921] 1
x[922] 0
x[923] -1.6637693551414189e-07
x[924] 0
x[925] 1
x[926] 1
x[927] 0
x[928] 1
x[929] 9.9999991510142183e-01
x[930] 3.0497523232188595e-07
x[931] 0
x[932] 1
x[933] 0
x[934] 1
x[935] 0
x[936] 0
x[937] 9.9999990503378089e-01
x[938] 1
x[939] -9.49662193210213e-08
x[940] 1
x[941] 0
x[942] 1
x[943] 0
x[944] 0
x[945] 0
x[946] 0
x[947] 1
x[948] 1
x[949] 2.8305350958586624e-08
x[950] 0
x[951] 0
x[952] 0
x[953] 1.0000000949112835e+00
x[954] 1
x[955] 1.0000001699712919e+00
x[956] 1
x[957] 7.47603036584193e-08
x[958] 1
x[959] 9.9999990836711428e-01
x[960] 1
x[961] 0
x[962] 1.0000000100174575e+00
x[963] 1
x[964] 0
x[965] 0
x[966] 1
x[967] 3.0497497508034897e-07
x[968] 1
x[969] 9.4925658168670587e-08
x[970] 0
x[971] 0
x[972] -2.2516918329884561e-07
x[973] 0
x[974] -1.1006768141363921e-07
x[975] 1
x[976] 1
x[977] 1
x[978] 0
x[979] 0
x[980] -9.1414874956490510e-08
x[981] 0
x[982] 1.0000000948727983e+00
x[983] 1.0000002799651708e+00
x[984] 1
x[985] 1
x[986] 1
x[987] 0
x[988] 0
x[989] 9.9999988993231881e-01
x[990] 1
x[991] 1
x[992] 1
x[993] 0
x[994] 1
x[995] -2.5503392087067311e-07
x[996] 0
x[997] 3.0482142179174178e-07
x[998] 1
x[999] 0
